
******************************************************************************
This program contains Ipopt, a library for large-scale nonlinear optimization.
 Ipopt is released as open source code under the Eclipse Public License (EPL).
         For more information visit http://projects.coin-or.org/Ipopt
******************************************************************************

This is Ipopt version 3.12.6, running with linear solver ma57.

Number of nonzeros in equality constraint Jacobian...:     7194
Number of nonzeros in inequality constraint Jacobian.:        0
Number of nonzeros in Lagrangian Hessian.............:     6114

Total number of variables............................:     3960
                     variables with only lower bounds:        0
                variables with lower and upper bounds:     3960
                     variables with only upper bounds:        0
Total number of equality constraints.................:     1440
Total number of inequality constraints...............:        0
        inequality constraints with only lower bounds:        0
   inequality constraints with lower and upper bounds:        0
        inequality constraints with only upper bounds:        0

iter    objective    inf_pr   inf_du lg(mu)  ||d||  lg(rg) alpha_du alpha_pr  ls
   0 -7.8876387e+00 2.39e+01 9.76e-03  -1.0 0.00e+00    -  0.00e+00 0.00e+00   0
   1 -7.9315043e+00 2.36e+01 9.96e-02  -1.0 6.39e+01    -  8.61e-03 9.45e-03f  1
   2 -8.0724890e+00 2.27e+01 1.26e+00  -1.0 3.11e+01    -  4.24e-03 4.07e-02f  1
   3 -8.2942471e+00 2.06e+01 2.36e+00  -1.0 2.71e+01    -  2.09e-02 9.22e-02f  1
   4 -8.5838057e+00 1.55e+01 3.40e+00  -1.0 2.14e+01    -  2.81e-02 2.48e-01f  1
   5 -8.7368535e+00 7.21e+00 2.71e+00  -1.0 1.40e+01    -  1.51e-01 5.34e-01f  1
   6 -8.6953229e+00 7.97e-01 1.65e+00  -1.0 7.08e+00    -  4.17e-01 8.89e-01f  1
   7 -8.6000418e+00 5.52e-03 2.59e-01  -1.0 1.44e+00    -  7.77e-01 1.00e+00f  1
   8 -8.2287040e+00 2.43e-02 1.74e-01  -1.0 3.25e+00    -  8.57e-01 1.00e+00f  1
   9 -7.7970289e+00 3.31e-02 5.65e-02  -1.0 1.63e+01    -  8.96e-01 1.00e+00f  1
iter    objective    inf_pr   inf_du lg(mu)  ||d||  lg(rg) alpha_du alpha_pr  ls
  10 -7.7798270e+00 1.17e-04 7.55e-02  -1.7 3.34e+00    -  9.52e-01 1.00e+00h  1
  11 -7.9670231e+00 3.94e-04 9.18e-02  -2.5 5.35e+00    -  7.79e-01 1.00e+00f  1
  12 -8.4139564e+00 1.99e-03 2.34e-03  -2.5 1.08e+01    -  9.75e-01 1.00e+00f  1
  13 -9.0405555e+00 2.44e-03 4.82e-03  -3.8 2.82e+01    -  6.63e-01 5.64e-01f  1
  14 -9.8407313e+00 2.47e-03 2.87e-03  -3.8 1.40e+01    -  6.53e-01 6.07e-01f  1
  15 -1.0404118e+01 4.95e-03 2.74e-03  -3.8 1.18e+01    -  8.12e-01 5.92e-01f  1
  16 -1.0776193e+01 4.46e-03 4.99e-04  -3.8 9.65e+00    -  8.54e-01 7.92e-01f  1
  17 -1.0860419e+01 4.97e-04 4.06e-06  -3.8 3.22e+00    -  1.00e+00 1.00e+00h  1
  18 -1.0996561e+01 8.65e-04 1.27e-04  -5.7 1.09e+01    -  5.00e-01 5.36e-01f  1
  19 -1.1046887e+01 9.08e-04 1.74e-04  -5.7 8.91e+00    -  3.57e-01 3.93e-01h  1
iter    objective    inf_pr   inf_du lg(mu)  ||d||  lg(rg) alpha_du alpha_pr  ls
  20 -1.1070023e+01 8.07e-04 2.46e-04  -5.7 6.80e+00    -  4.07e-01 2.89e-01h  1
  21 -1.1098027e+01 1.94e-03 2.01e-04  -5.7 5.89e+00    -  3.73e-01 4.88e-01h  1
  22 -1.1113358e+01 3.04e-03 4.00e-04  -5.7 3.88e+00    -  4.22e-01 5.27e-01f  1
  23 -1.1121088e+01 4.66e-03 8.55e-04  -5.7 2.30e+00    -  3.35e-01 5.73e-01h  1
  24 -1.1125752e+01 5.22e-02 7.35e-04  -5.7 1.71e+00    -  5.34e-01 7.60e-01h  1
  25 -1.1127463e+01 3.35e-03 3.44e-04  -5.7 3.15e-01    -  6.87e-01 1.00e+00h  1
  26 -1.1127656e+01 1.12e-03 7.94e-06  -5.7 2.76e-01    -  1.00e+00 9.34e-01h  1
  27 -1.1127682e+01 1.74e-04 1.30e-07  -5.7 1.57e-01    -  1.00e+00 1.00e+00f  1
  28 -1.1127685e+01 5.24e-06 7.51e-09  -5.7 3.27e-02    -  1.00e+00 1.00e+00h  1
  29 -1.1129825e+01 1.54e-03 3.00e-05  -8.6 4.67e-01    -  5.53e-01 6.24e-01h  1
iter    objective    inf_pr   inf_du lg(mu)  ||d||  lg(rg) alpha_du alpha_pr  ls
  30 -1.1130558e+01 1.37e-03 3.09e-05  -8.6 2.79e-01    -  4.57e-01 5.46e-01h  1
  31 -1.1130918e+01 9.81e-04 1.27e-05  -8.6 2.14e-01    -  5.78e-01 5.74e-01h  1
  32 -1.1131077e+01 6.05e-04 9.18e-06  -8.6 1.58e-01    -  5.07e-01 5.73e-01h  1
  33 -1.1131153e+01 3.49e-04 5.07e-06  -8.6 1.09e-01    -  8.11e-01 6.26e-01h  1
  34 -1.1131195e+01 1.59e-04 3.18e-07  -8.6 7.68e-02    -  8.84e-01 9.25e-01h  1
  35 -1.1131199e+01 1.92e-05 5.28e-09  -8.6 2.69e-02    -  1.00e+00 1.00e+00f  1
  36 -1.1131199e+01 1.33e-06 3.52e-10  -8.6 7.10e-03    -  1.00e+00 1.00e+00h  1
  37 -1.1131199e+01 1.77e-08 7.75e-12  -8.6 9.31e-04    -  1.00e+00 1.00e+00h  1
  38 -1.1131202e+01 9.73e-07 2.65e-10  -9.0 6.07e-03    -  1.00e+00 1.00e+00h  1
  39 -1.1131202e+01 1.04e-08 4.67e-12  -9.0 7.23e-04    -  1.00e+00 1.00e+00h  1
iter    objective    inf_pr   inf_du lg(mu)  ||d||  lg(rg) alpha_du alpha_pr  ls
  40 -1.1131202e+01 2.19e-11 8.23e-15  -9.0 3.03e-05    -  1.00e+00 1.00e+00h  1

Number of Iterations....: 40

                                   (scaled)                 (unscaled)
Objective...............:  -1.1131202012796010e+01   -1.1131202012796010e+01
Dual infeasibility......:   8.2260587230820192e-15    8.2260587230820192e-15
Constraint violation....:   2.1887769374728805e-11    2.1887769374728805e-11
Complementarity.........:   9.0912728939379445e-10    9.0912728939379445e-10
Overall NLP error.......:   9.0912728939379445e-10    9.0912728939379445e-10


Number of objective function evaluations             = 41
Number of objective gradient evaluations             = 41
Number of equality constraint evaluations            = 41
Number of inequality constraint evaluations          = 0
Number of equality constraint Jacobian evaluations   = 41
Number of inequality constraint Jacobian evaluations = 0
Number of Lagrangian Hessian evaluations             = 40
Total CPU secs in IPOPT (w/o function evaluations)   =      0.080
Total CPU secs in NLP function evaluations           =      0.080

EXIT: Optimal Solution Found.

************************ CUTEst statistics ************************


 Package used            :  IPOPT
 Problem                 :  ZAMB2     
 # variables             =            3966
 # constraints           =            1440
 # objective functions   =        0.8300000E+02
 # objective gradients   =        0.4200000E+02
 # objective Hessians    =        0.4100000E+02
 # Hessian-vector prdct  =        0.0000000E+00
 # constraints functions =        0.8400000E+02
 # constraints gradients =        0.4300000E+02
 # constraints Hessians  =        0.4100000E+02
 Exit code               =               0
 Final f                 =  -0.1113120E+02
 Set up time             =            0.08 seconds
 Solve time              =            0.34 seconds


******************************************************************

System Time =       0.1469999999 s.
